% File represents an instance of a Composite Structure problem to be solved by a CP framework
% Created on 2025-03-26 10:42:20.028
T = 58;
n = 36;
m = 60;
edges = [(1, 2),
(7, 8),
(13, 14),
(19, 20),
(26, 25),
(31, 32),
(3, 2),
(9, 8),
(15, 14),
(21, 20),
(26, 27),
(32, 33),
(3, 4),
(9, 10),
(15, 16),
(21, 22),
(27, 28),
(34, 33),
(4, 5),
(10, 11),
(16, 17),
(22, 23),
(28, 29),
(35, 34),
(6, 5),
(12, 11),
(17, 18),
(23, 24),
(29, 30),
(35, 36),
(7, 1),
(13, 7),
(19, 13),
(19, 25),
(31, 25),
(8, 2),
(14, 8),
(20, 14),
(26, 20),
(26, 32),
(9, 3),
(15, 9),
(21, 15),
(21, 27),
(27, 33),
(10, 4),
(16, 10),
(22, 16),
(22, 28),
(28, 34),
(11, 5),
(17, 11),
(23, 17),
(23, 29),
(35, 29),
(12, 6),
(12, 18),
(24, 18),
(24, 30),
(36, 30)];
counts = [|10, 16, 10, 12,
|8, 14, 8, 12,
|10, 16, 10, 12,
|10, 16, 10, 10,
|8, 16, 8, 8,
|10, 16, 10, 10,
|12, 16, 12, 14,
|10, 14, 10, 14,
|10, 18, 10, 16,
|10, 18, 10, 12,
|8, 18, 8, 10,
|10, 18, 10, 12,
|12, 16, 12, 16,
|10, 14, 10, 16,
|10, 20, 10, 16,
|10, 20, 10, 12,
|8, 20, 8, 10,
|8, 18, 8, 10,
|12, 18, 12, 16,
|10, 18, 10, 16,
|10, 20, 10, 18,
|10, 20, 10, 16,
|10, 20, 10, 10,
|10, 18, 10, 10,
|12, 16, 12, 16,
|12, 18, 12, 16,
|10, 18, 10, 16,
|10, 16, 10, 16,
|10, 16, 10, 10,
|10, 12, 10, 10,
|12, 18, 12, 16,
|12, 12, 12, 16,
|10, 12, 10, 16,
|10, 14, 10, 16,
|10, 16, 10, 16,
|10, 14, 10, 14|];
